
  32    4
  10   10   10   10

   0   0   0   0   0   2 2 5 
   7  10  10  10  10   1 3 
   8  10  10  10  10   1 4 
   4  10  10  10  10   3 8 7 6 
   2  10  10  10  10   2 7 6 
   6  10  10  10  10   3 12 11 9 
  10  10  10  10  10   2 12 10 
   8  10  10  10  10   2 12 10 
  10  10  10  10  10   1 10 
   5  10  10  10  10   2 14 13 
   6  10  10  10  10   2 15 13 
   5  10  10  10  10   1 13 
   6  10  10  10  10   2 17 16 
   6  10  10  10  10   1 16 
  10  10  10  10  10   1 16 
   9  10  10  10  10   1 18 
   1  10  10  10  10   1 18 
   6  10  10  10  10   2 20 19 
   8  10  10  10  10   2 22 21 
   6  10  10  10  10   2 24 23 
   3  10  10  10  10   2 27 24 
   6  10  10  10  10   1 23 
   2  10  10  10  10   3 28 27 26 
   3  10  10  10  10   2 28 25 
   5  10  10  10  10   1 26 
   1  10  10  10  10   3 31 30 29 
   2  10  10  10  10   2 30 29 
   3  10  10  10  10   1 29 
  10  10  10  10  10   1 32
  10  10  10  10  10   1 32
   7  10  10  10  10   1 32
   0   0   0   0   0   0 
